NAME          DCAP_3_4_2_500_SS269
ROWS
 N  OBJ
 L  CON1
 L  CON2
 L  CON3
 L  CON4
 L  CON5
 L  CON6
 L  CON7
 L  CON8
 L  CON9
 L  CON10
 L  CON11
 L  CON12
 E  CON13
 E  CON14
 E  CON15
 E  CON16
 E  CON17
 E  CON18
 E  CON19
 E  CON20
COLUMNS
    x[1,1]    OBJ       6.180167      CON1      1.000000    
    x[1,1]    CON7      -1.000000     CON8      -1.000000   
    x[1,2]    OBJ       5.039546      CON2      1.000000    
    x[1,2]    CON8      -1.000000   
    x[2,1]    OBJ       6.732585      CON3      1.000000    
    x[2,1]    CON9      -1.000000     CON10     -1.000000   
    x[2,2]    OBJ       7.443064      CON4      1.000000    
    x[2,2]    CON10     -1.000000   
    x[3,1]    OBJ       6.563535      CON5      1.000000    
    x[3,1]    CON11     -1.000000     CON12     -1.000000   
    x[3,2]    OBJ       6.054841      CON6      1.000000    
    x[3,2]    CON12     -1.000000   
    MARKER    'MARKER'                'INTORG'
    u[1,1]    OBJ       48.076654     CON1      -1.000000   
    u[1,2]    OBJ       49.466655     CON2      -1.000000   
    u[2,1]    OBJ       49.996186     CON3      -1.000000   
    u[2,2]    OBJ       32.230043     CON4      -1.000000   
    u[3,1]    OBJ       20.066487     CON5      -1.000000   
    u[3,2]    OBJ       27.484319     CON6      -1.000000   
    y[1,1,1]  OBJ       6.009217      CON7      1.252128    
    y[1,1,1]  CON13     1.000000    
    y[1,1,2]  OBJ       6.575588      CON8      0.870874    
    y[1,1,2]  CON14     1.000000    
    y[1,2,1]  OBJ       8.763128      CON7      0.552665    
    y[1,2,1]  CON15     1.000000    
    y[1,2,2]  OBJ       5.469415      CON8      0.617534    
    y[1,2,2]  CON16     1.000000    
    y[1,3,1]  OBJ       7.697177      CON7      0.634183    
    y[1,3,1]  CON17     1.000000    
    y[1,3,2]  OBJ       7.000960      CON8      1.495007    
    y[1,3,2]  CON18     1.000000    
    y[1,4,1]  OBJ       6.334876      CON7      1.449326    
    y[1,4,1]  CON19     1.000000    
    y[1,4,2]  OBJ       7.446462      CON8      0.822217    
    y[1,4,2]  CON20     1.000000    
    y[2,1,1]  OBJ       9.102582      CON9      1.252128    
    y[2,1,1]  CON13     1.000000    
    y[2,1,2]  OBJ       5.472255      CON10     0.870874    
    y[2,1,2]  CON14     1.000000    
    y[2,2,1]  OBJ       7.981394      CON9      0.552665    
    y[2,2,1]  CON15     1.000000    
    y[2,2,2]  OBJ       8.651767      CON10     0.617534    
    y[2,2,2]  CON16     1.000000    
    y[2,3,1]  OBJ       9.011929      CON9      0.634183    
    y[2,3,1]  CON17     1.000000    
    y[2,3,2]  OBJ       6.988596      CON10     1.495007    
    y[2,3,2]  CON18     1.000000    
    y[2,4,1]  OBJ       9.688949      CON9      1.449326    
    y[2,4,1]  CON19     1.000000    
    y[2,4,2]  OBJ       7.877041      CON10     0.822217    
    y[2,4,2]  CON20     1.000000    
    y[3,1,1]  OBJ       7.127817      CON11     1.252128    
    y[3,1,1]  CON13     1.000000    
    y[3,1,2]  OBJ       6.216909      CON12     0.870874    
    y[3,1,2]  CON14     1.000000    
    y[3,2,1]  OBJ       7.210662      CON11     0.552665    
    y[3,2,1]  CON15     1.000000    
    y[3,2,2]  OBJ       8.691271      CON12     0.617534    
    y[3,2,2]  CON16     1.000000    
    y[3,3,1]  OBJ       5.731812      CON11     0.634183    
    y[3,3,1]  CON17     1.000000    
    y[3,3,2]  OBJ       8.556735      CON12     1.495007    
    y[3,3,2]  CON18     1.000000    
    y[3,4,1]  OBJ       9.360774      CON11     1.449326    
    y[3,4,1]  CON19     1.000000    
    y[3,4,2]  OBJ       7.084865      CON12     0.822217    
    y[3,4,2]  CON20     1.000000    
    z[1,1]    OBJ       639.732985    CON13     1.000000    
    z[1,2]    OBJ       895.468553    CON14     1.000000    
    z[2,1]    OBJ       656.763892    CON15     1.000000    
    z[2,2]    OBJ       610.441500    CON16     1.000000    
    z[3,1]    OBJ       885.193312    CON17     1.000000    
    z[3,2]    OBJ       774.931772    CON18     1.000000    
    z[4,1]    OBJ       642.302915    CON19     1.000000    
    z[4,2]    OBJ       663.040558    CON20     1.000000    
    MARKER    'MARKER'                 'INTEND'
RHS
    RHS       CON1      -0.000000     CON2      -0.000000   
    RHS       CON3      -0.000000     CON4      -0.000000   
    RHS       CON5      -0.000000     CON6      -0.000000   
    RHS       CON7      -0.000000     CON8      -0.000000   
    RHS       CON9      -0.000000     CON10     -0.000000   
    RHS       CON11     -0.000000     CON12     -0.000000   
    RHS       CON13     1.000000      CON14     1.000000    
    RHS       CON15     1.000000      CON16     1.000000    
    RHS       CON17     1.000000      CON18     1.000000    
    RHS       CON19     1.000000      CON20     1.000000    
BOUNDS
 BV BOUND     u[1,1]  
 BV BOUND     u[1,2]  
 BV BOUND     u[2,1]  
 BV BOUND     u[2,2]  
 BV BOUND     u[3,1]  
 BV BOUND     u[3,2]  
 BV BOUND     y[1,1,1]
 BV BOUND     y[1,1,2]
 BV BOUND     y[1,2,1]
 BV BOUND     y[1,2,2]
 BV BOUND     y[1,3,1]
 BV BOUND     y[1,3,2]
 BV BOUND     y[1,4,1]
 BV BOUND     y[1,4,2]
 BV BOUND     y[2,1,1]
 BV BOUND     y[2,1,2]
 BV BOUND     y[2,2,1]
 BV BOUND     y[2,2,2]
 BV BOUND     y[2,3,1]
 BV BOUND     y[2,3,2]
 BV BOUND     y[2,4,1]
 BV BOUND     y[2,4,2]
 BV BOUND     y[3,1,1]
 BV BOUND     y[3,1,2]
 BV BOUND     y[3,2,1]
 BV BOUND     y[3,2,2]
 BV BOUND     y[3,3,1]
 BV BOUND     y[3,3,2]
 BV BOUND     y[3,4,1]
 BV BOUND     y[3,4,2]
 BV BOUND     z[1,1]  
 BV BOUND     z[1,2]  
 BV BOUND     z[2,1]  
 BV BOUND     z[2,2]  
 BV BOUND     z[3,1]  
 BV BOUND     z[3,2]  
 BV BOUND     z[4,1]  
 BV BOUND     z[4,2]  
ENDATA
